NAME : instances/50-tsp/instance-36.tsp
COMMENT : No comment
TYPE : TSP
DIMENSION: 50
EDGE_WEIGHT_TYPE : EUC_2D
NODE_COORD_SECTION
1 872 1166 
2 536 1277 
3 1203 435 
4 605 529 
5 1192 577 
6 1612 204 
7 320 146 
8 170 850 
9 39 1052 
10 1761 968 
11 489 1925 
12 1382 219 
13 350 1506 
14 51 1587 
15 889 925 
16 703 390 
17 1287 1211 
18 1363 1841 
19 1563 1081 
20 1880 239 
21 44 894 
22 1070 1471 
23 296 1029 
24 223 1739 
25 1875 41 
26 1345 1237 
27 997 96 
28 1941 139 
29 375 587 
30 1906 654 
31 1559 1271 
32 858 1448 
33 1374 1317 
34 363 1909 
35 1062 1243 
36 171 1743 
37 1112 468 
38 1376 1472 
39 1640 909 
40 1959 1235 
41 1516 1991 
42 1639 301 
43 131 1963 
44 525 497 
45 849 420 
46 1303 250 
47 1050 920 
48 885 781 
49 117 760 
50 1168 1900 
EOF
